NAME: rue_20_4
TYPE: TSP
DIMENSION: 20
EDGE_WEIGHT_TYPE: EUC_2D
NODE_COORD_SECTION
1 38 35
2 31 31
3 38 20
4 17 29
5 26 27
6 24 27
7 7 16
8 37 23
9 28 19
10 1 40
11 10 7
12 6 10
13 5 21
14 27 5
15 34 28
16 18 1
17 1 22
18 1 21
19 3 10
20 15 35

